NAME: random_points
TYPE: TSP
DIMENSION: 25
EDGE_WEIGHT_TYPE: EUC_2D
NODE_COORD_SECTION
1 984 22
2 746 66
3 583 256
4 400 869
5 303 287
6 409 158
7 819 744
8 426 850
9 483 686
10 447 204
11 960 389
12 319 287
13 581 878
14 227 825
15 265 20
16 189 265
17 915 731
18 320 700
19 867 39
20 473 411
21 990 869
22 128 599
23 732 344
24 286 73
25 323 158
EOF
